\ Model VRPTW_Exato
\ LP format - for model browsing. Use MPS format to capture full model detail.
\ Signature: 0x97e0556cc4e54d2
Minimize
  0 x[0,0,0] + 0 x[0,0,1] + 15.23154621172782 x[0,1,0]
   + 15.23154621172782 x[0,1,1] + 18 x[0,2,0] + 18 x[0,2,1]
   + 22.3606797749979 x[0,3,0] + 22.3606797749979 x[0,3,1] + 25 x[0,4,0]
   + 25 x[0,4,1] + 20.6155281280883 x[0,5,0] + 20.6155281280883 x[0,5,1]
   + 11.18033988749895 x[0,6,0] + 11.18033988749895 x[0,6,1]
   + 21.21320343559643 x[0,7,0] + 21.21320343559643 x[0,7,1]
   + 26.24880949681338 x[0,8,0] + 26.24880949681338 x[0,8,1]
   + 15.23154621172782 x[1,0,0] + 15.23154621172782 x[1,0,1] + 0 x[1,1,0]
   + 0 x[1,1,1] + 32.55764119219941 x[1,2,0] + 32.55764119219941 x[1,2,1]
   + 14.56021977856104 x[1,3,0] + 14.56021977856104 x[1,3,1]
   + 32.20248437620923 x[1,4,0] + 32.20248437620923 x[1,4,1]
   + 32.20248437620923 x[1,5,0] + 32.20248437620923 x[1,5,1]
   + 24.83948469674844 x[1,6,0] + 24.83948469674844 x[1,6,1]
   + 21.02379604162864 x[1,7,0] + 21.02379604162864 x[1,7,1]
   + 31.57530680769389 x[1,8,0] + 31.57530680769389 x[1,8,1] + 18 x[2,0,0]
   + 18 x[2,0,1] + 32.55764119219941 x[2,1,0] + 32.55764119219941 x[2,1,1]
   + 0 x[2,2,0] + 0 x[2,2,1] + 34.40930106817051 x[2,3,0]
   + 34.40930106817051 x[2,3,1] + 20.22374841615668 x[2,4,0]
   + 20.22374841615668 x[2,4,1] + 23.85372088375313 x[2,5,0]
   + 23.85372088375313 x[2,5,1] + 16.40121946685673 x[2,6,0]
   + 16.40121946685673 x[2,6,1] + 36.24913792078372 x[2,7,0]
   + 36.24913792078372 x[2,7,1] + 36.06937759374286 x[2,8,0]
   + 36.06937759374286 x[2,8,1] + 22.3606797749979 x[3,0,0]
   + 22.3606797749979 x[3,0,1] + 14.56021977856104 x[3,1,0]
   + 14.56021977856104 x[3,1,1] + 34.40930106817051 x[3,2,0]
   + 34.40930106817051 x[3,2,1] + 0 x[3,3,0] + 0 x[3,3,1] + 25 x[3,4,0]
   + 25 x[3,4,1] + 42.72001872658765 x[3,5,0] + 42.72001872658765 x[3,5,1]
   + 33.54101966249684 x[3,6,0] + 33.54101966249684 x[3,6,1]
   + 35.35533905932738 x[3,7,0] + 35.35533905932738 x[3,7,1]
   + 45.04442251822083 x[3,8,0] + 45.04442251822083 x[3,8,1] + 25 x[4,0,0]
   + 25 x[4,0,1] + 32.20248437620923 x[4,1,0] + 32.20248437620923 x[4,1,1]
   + 20.22374841615668 x[4,2,0] + 20.22374841615668 x[4,2,1] + 25 x[4,3,0]
   + 25 x[4,3,1] + 0 x[4,4,0] + 0 x[4,4,1] + 41.23105625617661 x[4,5,0]
   + 41.23105625617661 x[4,5,1] + 31.62277660168379 x[4,6,0]
   + 31.62277660168379 x[4,6,1] + 46.09772228646444 x[4,7,0]
   + 46.09772228646444 x[4,7,1] + 50.53711507397311 x[4,8,0]
   + 50.53711507397311 x[4,8,1] + 20.6155281280883 x[5,0,0]
   + 20.6155281280883 x[5,0,1] + 32.20248437620923 x[5,1,0]
   + 32.20248437620923 x[5,1,1] + 23.85372088375313 x[5,2,0]
   + 23.85372088375313 x[5,2,1] + 42.72001872658765 x[5,3,0]
   + 42.72001872658765 x[5,3,1] + 41.23105625617661 x[5,4,0]
   + 41.23105625617661 x[5,4,1] + 0 x[5,5,0] + 0 x[5,5,1] + 10 x[5,6,0]
   + 10 x[5,6,1] + 20.6155281280883 x[5,7,0] + 20.6155281280883 x[5,7,1]
   + 13.92838827718412 x[5,8,0] + 13.92838827718412 x[5,8,1]
   + 11.18033988749895 x[6,0,0] + 11.18033988749895 x[6,0,1]
   + 24.83948469674844 x[6,1,0] + 24.83948469674844 x[6,1,1]
   + 16.40121946685673 x[6,2,0] + 16.40121946685673 x[6,2,1]
   + 33.54101966249684 x[6,3,0] + 33.54101966249684 x[6,3,1]
   + 31.62277660168379 x[6,4,0] + 31.62277660168379 x[6,4,1] + 10 x[6,5,0]
   + 10 x[6,5,1] + 0 x[6,6,0] + 0 x[6,6,1] + 20.6155281280883 x[6,7,0]
   + 20.6155281280883 x[6,7,1] + 19.84943324127921 x[6,8,0]
   + 19.84943324127921 x[6,8,1] + 21.21320343559643 x[7,0,0]
   + 21.21320343559643 x[7,0,1] + 21.02379604162864 x[7,1,0]
   + 21.02379604162864 x[7,1,1] + 36.24913792078372 x[7,2,0]
   + 36.24913792078372 x[7,2,1] + 35.35533905932738 x[7,3,0]
   + 35.35533905932738 x[7,3,1] + 46.09772228646444 x[7,4,0]
   + 46.09772228646444 x[7,4,1] + 20.6155281280883 x[7,5,0]
   + 20.6155281280883 x[7,5,1] + 20.6155281280883 x[7,6,0]
   + 20.6155281280883 x[7,6,1] + 0 x[7,7,0] + 0 x[7,7,1]
   + 12.2065556157337 x[7,8,0] + 12.2065556157337 x[7,8,1]
   + 26.24880949681338 x[8,0,0] + 26.24880949681338 x[8,0,1]
   + 31.57530680769389 x[8,1,0] + 31.57530680769389 x[8,1,1]
   + 36.06937759374286 x[8,2,0] + 36.06937759374286 x[8,2,1]
   + 45.04442251822083 x[8,3,0] + 45.04442251822083 x[8,3,1]
   + 50.53711507397311 x[8,4,0] + 50.53711507397311 x[8,4,1]
   + 13.92838827718412 x[8,5,0] + 13.92838827718412 x[8,5,1]
   + 19.84943324127921 x[8,6,0] + 19.84943324127921 x[8,6,1]
   + 12.2065556157337 x[8,7,0] + 12.2065556157337 x[8,7,1] + 0 x[8,8,0]
   + 0 x[8,8,1]
Subject To
 entrada_1: x[0,1,0] + x[0,1,1] + x[2,1,0] + x[2,1,1] + x[3,1,0] + x[3,1,1]
   + x[4,1,0] + x[4,1,1] + x[5,1,0] + x[5,1,1] + x[6,1,0] + x[6,1,1]
   + x[7,1,0] + x[7,1,1] + x[8,1,0] + x[8,1,1] = 1
 saida_1: x[1,0,0] + x[1,0,1] + x[1,2,0] + x[1,2,1] + x[1,3,0] + x[1,3,1]
   + x[1,4,0] + x[1,4,1] + x[1,5,0] + x[1,5,1] + x[1,6,0] + x[1,6,1]
   + x[1,7,0] + x[1,7,1] + x[1,8,0] + x[1,8,1] = 1
 entrada_2: x[0,2,0] + x[0,2,1] + x[1,2,0] + x[1,2,1] + x[3,2,0] + x[3,2,1]
   + x[4,2,0] + x[4,2,1] + x[5,2,0] + x[5,2,1] + x[6,2,0] + x[6,2,1]
   + x[7,2,0] + x[7,2,1] + x[8,2,0] + x[8,2,1] = 1
 saida_2: x[2,0,0] + x[2,0,1] + x[2,1,0] + x[2,1,1] + x[2,3,0] + x[2,3,1]
   + x[2,4,0] + x[2,4,1] + x[2,5,0] + x[2,5,1] + x[2,6,0] + x[2,6,1]
   + x[2,7,0] + x[2,7,1] + x[2,8,0] + x[2,8,1] = 1
 entrada_3: x[0,3,0] + x[0,3,1] + x[1,3,0] + x[1,3,1] + x[2,3,0] + x[2,3,1]
   + x[4,3,0] + x[4,3,1] + x[5,3,0] + x[5,3,1] + x[6,3,0] + x[6,3,1]
   + x[7,3,0] + x[7,3,1] + x[8,3,0] + x[8,3,1] = 1
 saida_3: x[3,0,0] + x[3,0,1] + x[3,1,0] + x[3,1,1] + x[3,2,0] + x[3,2,1]
   + x[3,4,0] + x[3,4,1] + x[3,5,0] + x[3,5,1] + x[3,6,0] + x[3,6,1]
   + x[3,7,0] + x[3,7,1] + x[3,8,0] + x[3,8,1] = 1
 entrada_4: x[0,4,0] + x[0,4,1] + x[1,4,0] + x[1,4,1] + x[2,4,0] + x[2,4,1]
   + x[3,4,0] + x[3,4,1] + x[5,4,0] + x[5,4,1] + x[6,4,0] + x[6,4,1]
   + x[7,4,0] + x[7,4,1] + x[8,4,0] + x[8,4,1] = 1
 saida_4: x[4,0,0] + x[4,0,1] + x[4,1,0] + x[4,1,1] + x[4,2,0] + x[4,2,1]
   + x[4,3,0] + x[4,3,1] + x[4,5,0] + x[4,5,1] + x[4,6,0] + x[4,6,1]
   + x[4,7,0] + x[4,7,1] + x[4,8,0] + x[4,8,1] = 1
 entrada_5: x[0,5,0] + x[0,5,1] + x[1,5,0] + x[1,5,1] + x[2,5,0] + x[2,5,1]
   + x[3,5,0] + x[3,5,1] + x[4,5,0] + x[4,5,1] + x[6,5,0] + x[6,5,1]
   + x[7,5,0] + x[7,5,1] + x[8,5,0] + x[8,5,1] = 1
 saida_5: x[5,0,0] + x[5,0,1] + x[5,1,0] + x[5,1,1] + x[5,2,0] + x[5,2,1]
   + x[5,3,0] + x[5,3,1] + x[5,4,0] + x[5,4,1] + x[5,6,0] + x[5,6,1]
   + x[5,7,0] + x[5,7,1] + x[5,8,0] + x[5,8,1] = 1
 entrada_6: x[0,6,0] + x[0,6,1] + x[1,6,0] + x[1,6,1] + x[2,6,0] + x[2,6,1]
   + x[3,6,0] + x[3,6,1] + x[4,6,0] + x[4,6,1] + x[5,6,0] + x[5,6,1]
   + x[7,6,0] + x[7,6,1] + x[8,6,0] + x[8,6,1] = 1
 saida_6: x[6,0,0] + x[6,0,1] + x[6,1,0] + x[6,1,1] + x[6,2,0] + x[6,2,1]
   + x[6,3,0] + x[6,3,1] + x[6,4,0] + x[6,4,1] + x[6,5,0] + x[6,5,1]
   + x[6,7,0] + x[6,7,1] + x[6,8,0] + x[6,8,1] = 1
 entrada_7: x[0,7,0] + x[0,7,1] + x[1,7,0] + x[1,7,1] + x[2,7,0] + x[2,7,1]
   + x[3,7,0] + x[3,7,1] + x[4,7,0] + x[4,7,1] + x[5,7,0] + x[5,7,1]
   + x[6,7,0] + x[6,7,1] + x[8,7,0] + x[8,7,1] = 1
 saida_7: x[7,0,0] + x[7,0,1] + x[7,1,0] + x[7,1,1] + x[7,2,0] + x[7,2,1]
   + x[7,3,0] + x[7,3,1] + x[7,4,0] + x[7,4,1] + x[7,5,0] + x[7,5,1]
   + x[7,6,0] + x[7,6,1] + x[7,8,0] + x[7,8,1] = 1
 saida_deposito_0: x[0,1,0] + x[0,2,0] + x[0,3,0] + x[0,4,0] + x[0,5,0]
   + x[0,6,0] + x[0,7,0] + x[0,8,0] = 1
 retorno_deposito_0: x[0,8,0] + x[1,8,0] + x[2,8,0] + x[3,8,0] + x[4,8,0]
   + x[5,8,0] + x[6,8,0] + x[7,8,0] = 1
 saida_deposito_1: x[0,1,1] + x[0,2,1] + x[0,3,1] + x[0,4,1] + x[0,5,1]
   + x[0,6,1] + x[0,7,1] + x[0,8,1] = 1
 retorno_deposito_1: x[0,8,1] + x[1,8,1] + x[2,8,1] + x[3,8,1] + x[4,8,1]
   + x[5,8,1] + x[6,8,1] + x[7,8,1] = 1
 continuidade_1_0: x[0,1,0] - x[1,0,0] - x[1,2,0] - x[1,3,0] - x[1,4,0]
   - x[1,5,0] - x[1,6,0] - x[1,7,0] - x[1,8,0] + x[2,1,0] + x[3,1,0]
   + x[4,1,0] + x[5,1,0] + x[6,1,0] + x[7,1,0] + x[8,1,0] = 0
 continuidade_2_0: x[0,2,0] + x[1,2,0] - x[2,0,0] - x[2,1,0] - x[2,3,0]
   - x[2,4,0] - x[2,5,0] - x[2,6,0] - x[2,7,0] - x[2,8,0] + x[3,2,0]
   + x[4,2,0] + x[5,2,0] + x[6,2,0] + x[7,2,0] + x[8,2,0] = 0
 continuidade_3_0: x[0,3,0] + x[1,3,0] + x[2,3,0] - x[3,0,0] - x[3,1,0]
   - x[3,2,0] - x[3,4,0] - x[3,5,0] - x[3,6,0] - x[3,7,0] - x[3,8,0]
   + x[4,3,0] + x[5,3,0] + x[6,3,0] + x[7,3,0] + x[8,3,0] = 0
 continuidade_4_0: x[0,4,0] + x[1,4,0] + x[2,4,0] + x[3,4,0] - x[4,0,0]
   - x[4,1,0] - x[4,2,0] - x[4,3,0] - x[4,5,0] - x[4,6,0] - x[4,7,0]
   - x[4,8,0] + x[5,4,0] + x[6,4,0] + x[7,4,0] + x[8,4,0] = 0
 continuidade_5_0: x[0,5,0] + x[1,5,0] + x[2,5,0] + x[3,5,0] + x[4,5,0]
   - x[5,0,0] - x[5,1,0] - x[5,2,0] - x[5,3,0] - x[5,4,0] - x[5,6,0]
   - x[5,7,0] - x[5,8,0] + x[6,5,0] + x[7,5,0] + x[8,5,0] = 0
 continuidade_6_0: x[0,6,0] + x[1,6,0] + x[2,6,0] + x[3,6,0] + x[4,6,0]
   + x[5,6,0] - x[6,0,0] - x[6,1,0] - x[6,2,0] - x[6,3,0] - x[6,4,0]
   - x[6,5,0] - x[6,7,0] - x[6,8,0] + x[7,6,0] + x[8,6,0] = 0
 continuidade_7_0: x[0,7,0] + x[1,7,0] + x[2,7,0] + x[3,7,0] + x[4,7,0]
   + x[5,7,0] + x[6,7,0] - x[7,0,0] - x[7,1,0] - x[7,2,0] - x[7,3,0]
   - x[7,4,0] - x[7,5,0] - x[7,6,0] - x[7,8,0] + x[8,7,0] = 0
 continuidade_1_1: x[0,1,1] - x[1,0,1] - x[1,2,1] - x[1,3,1] - x[1,4,1]
   - x[1,5,1] - x[1,6,1] - x[1,7,1] - x[1,8,1] + x[2,1,1] + x[3,1,1]
   + x[4,1,1] + x[5,1,1] + x[6,1,1] + x[7,1,1] + x[8,1,1] = 0
 continuidade_2_1: x[0,2,1] + x[1,2,1] - x[2,0,1] - x[2,1,1] - x[2,3,1]
   - x[2,4,1] - x[2,5,1] - x[2,6,1] - x[2,7,1] - x[2,8,1] + x[3,2,1]
   + x[4,2,1] + x[5,2,1] + x[6,2,1] + x[7,2,1] + x[8,2,1] = 0
 continuidade_3_1: x[0,3,1] + x[1,3,1] + x[2,3,1] - x[3,0,1] - x[3,1,1]
   - x[3,2,1] - x[3,4,1] - x[3,5,1] - x[3,6,1] - x[3,7,1] - x[3,8,1]
   + x[4,3,1] + x[5,3,1] + x[6,3,1] + x[7,3,1] + x[8,3,1] = 0
 continuidade_4_1: x[0,4,1] + x[1,4,1] + x[2,4,1] + x[3,4,1] - x[4,0,1]
   - x[4,1,1] - x[4,2,1] - x[4,3,1] - x[4,5,1] - x[4,6,1] - x[4,7,1]
   - x[4,8,1] + x[5,4,1] + x[6,4,1] + x[7,4,1] + x[8,4,1] = 0
 continuidade_5_1: x[0,5,1] + x[1,5,1] + x[2,5,1] + x[3,5,1] + x[4,5,1]
   - x[5,0,1] - x[5,1,1] - x[5,2,1] - x[5,3,1] - x[5,4,1] - x[5,6,1]
   - x[5,7,1] - x[5,8,1] + x[6,5,1] + x[7,5,1] + x[8,5,1] = 0
 continuidade_6_1: x[0,6,1] + x[1,6,1] + x[2,6,1] + x[3,6,1] + x[4,6,1]
   + x[5,6,1] - x[6,0,1] - x[6,1,1] - x[6,2,1] - x[6,3,1] - x[6,4,1]
   - x[6,5,1] - x[6,7,1] - x[6,8,1] + x[7,6,1] + x[8,6,1] = 0
 continuidade_7_1: x[0,7,1] + x[1,7,1] + x[2,7,1] + x[3,7,1] + x[4,7,1]
   + x[5,7,1] + x[6,7,1] - x[7,0,1] - x[7,1,1] - x[7,2,1] - x[7,3,1]
   - x[7,4,1] - x[7,5,1] - x[7,6,1] - x[7,8,1] + x[8,7,1] = 0
 carga_deposito_0: u[0,0] = 0
 capacidade_max_0_0: u[0,0] <= 70
 fluxo_carga_0_1_0: - 70 x[0,1,0] - u[0,0] + u[1,0] >= -60
 fluxo_carga_0_2_0: - 70 x[0,2,0] - u[0,0] + u[2,0] >= -63
 fluxo_carga_0_3_0: - 70 x[0,3,0] - u[0,0] + u[3,0] >= -57
 fluxo_carga_0_4_0: - 70 x[0,4,0] - u[0,0] + u[4,0] >= -51
 fluxo_carga_0_5_0: - 70 x[0,5,0] - u[0,0] + u[5,0] >= -44
 fluxo_carga_0_6_0: - 70 x[0,6,0] - u[0,0] + u[6,0] >= -67
 fluxo_carga_0_7_0: - 70 x[0,7,0] - u[0,0] + u[7,0] >= -65
 capacidade_max_1_0: u[1,0] <= 70
 fluxo_carga_1_2_0: - 70 x[1,2,0] - u[1,0] + u[2,0] >= -63
 fluxo_carga_1_3_0: - 70 x[1,3,0] - u[1,0] + u[3,0] >= -57
 fluxo_carga_1_4_0: - 70 x[1,4,0] - u[1,0] + u[4,0] >= -51
 fluxo_carga_1_5_0: - 70 x[1,5,0] - u[1,0] + u[5,0] >= -44
 fluxo_carga_1_6_0: - 70 x[1,6,0] - u[1,0] + u[6,0] >= -67
 fluxo_carga_1_7_0: - 70 x[1,7,0] - u[1,0] + u[7,0] >= -65
 capacidade_max_2_0: u[2,0] <= 70
 fluxo_carga_2_1_0: - 70 x[2,1,0] + u[1,0] - u[2,0] >= -60
 fluxo_carga_2_3_0: - 70 x[2,3,0] - u[2,0] + u[3,0] >= -57
 fluxo_carga_2_4_0: - 70 x[2,4,0] - u[2,0] + u[4,0] >= -51
 fluxo_carga_2_5_0: - 70 x[2,5,0] - u[2,0] + u[5,0] >= -44
 fluxo_carga_2_6_0: - 70 x[2,6,0] - u[2,0] + u[6,0] >= -67
 fluxo_carga_2_7_0: - 70 x[2,7,0] - u[2,0] + u[7,0] >= -65
 capacidade_max_3_0: u[3,0] <= 70
 fluxo_carga_3_1_0: - 70 x[3,1,0] + u[1,0] - u[3,0] >= -60
 fluxo_carga_3_2_0: - 70 x[3,2,0] + u[2,0] - u[3,0] >= -63
 fluxo_carga_3_4_0: - 70 x[3,4,0] - u[3,0] + u[4,0] >= -51
 fluxo_carga_3_5_0: - 70 x[3,5,0] - u[3,0] + u[5,0] >= -44
 fluxo_carga_3_6_0: - 70 x[3,6,0] - u[3,0] + u[6,0] >= -67
 fluxo_carga_3_7_0: - 70 x[3,7,0] - u[3,0] + u[7,0] >= -65
 capacidade_max_4_0: u[4,0] <= 70
 fluxo_carga_4_1_0: - 70 x[4,1,0] + u[1,0] - u[4,0] >= -60
 fluxo_carga_4_2_0: - 70 x[4,2,0] + u[2,0] - u[4,0] >= -63
 fluxo_carga_4_3_0: - 70 x[4,3,0] + u[3,0] - u[4,0] >= -57
 fluxo_carga_4_5_0: - 70 x[4,5,0] - u[4,0] + u[5,0] >= -44
 fluxo_carga_4_6_0: - 70 x[4,6,0] - u[4,0] + u[6,0] >= -67
 fluxo_carga_4_7_0: - 70 x[4,7,0] - u[4,0] + u[7,0] >= -65
 capacidade_max_5_0: u[5,0] <= 70
 fluxo_carga_5_1_0: - 70 x[5,1,0] + u[1,0] - u[5,0] >= -60
 fluxo_carga_5_2_0: - 70 x[5,2,0] + u[2,0] - u[5,0] >= -63
 fluxo_carga_5_3_0: - 70 x[5,3,0] + u[3,0] - u[5,0] >= -57
 fluxo_carga_5_4_0: - 70 x[5,4,0] + u[4,0] - u[5,0] >= -51
 fluxo_carga_5_6_0: - 70 x[5,6,0] - u[5,0] + u[6,0] >= -67
 fluxo_carga_5_7_0: - 70 x[5,7,0] - u[5,0] + u[7,0] >= -65
 capacidade_max_6_0: u[6,0] <= 70
 fluxo_carga_6_1_0: - 70 x[6,1,0] + u[1,0] - u[6,0] >= -60
 fluxo_carga_6_2_0: - 70 x[6,2,0] + u[2,0] - u[6,0] >= -63
 fluxo_carga_6_3_0: - 70 x[6,3,0] + u[3,0] - u[6,0] >= -57
 fluxo_carga_6_4_0: - 70 x[6,4,0] + u[4,0] - u[6,0] >= -51
 fluxo_carga_6_5_0: - 70 x[6,5,0] + u[5,0] - u[6,0] >= -44
 fluxo_carga_6_7_0: - 70 x[6,7,0] - u[6,0] + u[7,0] >= -65
 capacidade_max_7_0: u[7,0] <= 70
 fluxo_carga_7_1_0: - 70 x[7,1,0] + u[1,0] - u[7,0] >= -60
 fluxo_carga_7_2_0: - 70 x[7,2,0] + u[2,0] - u[7,0] >= -63
 fluxo_carga_7_3_0: - 70 x[7,3,0] + u[3,0] - u[7,0] >= -57
 fluxo_carga_7_4_0: - 70 x[7,4,0] + u[4,0] - u[7,0] >= -51
 fluxo_carga_7_5_0: - 70 x[7,5,0] + u[5,0] - u[7,0] >= -44
 fluxo_carga_7_6_0: - 70 x[7,6,0] + u[6,0] - u[7,0] >= -67
 capacidade_max_8_0: u[8,0] <= 70
 fluxo_carga_8_1_0: - 70 x[8,1,0] + u[1,0] - u[8,0] >= -60
 fluxo_carga_8_2_0: - 70 x[8,2,0] + u[2,0] - u[8,0] >= -63
 fluxo_carga_8_3_0: - 70 x[8,3,0] + u[3,0] - u[8,0] >= -57
 fluxo_carga_8_4_0: - 70 x[8,4,0] + u[4,0] - u[8,0] >= -51
 fluxo_carga_8_5_0: - 70 x[8,5,0] + u[5,0] - u[8,0] >= -44
 fluxo_carga_8_6_0: - 70 x[8,6,0] + u[6,0] - u[8,0] >= -67
 fluxo_carga_8_7_0: - 70 x[8,7,0] + u[7,0] - u[8,0] >= -65
 carga_deposito_1: u[0,1] = 0
 capacidade_max_0_1: u[0,1] <= 70
 fluxo_carga_0_1_1: - 70 x[0,1,1] - u[0,1] + u[1,1] >= -60
 fluxo_carga_0_2_1: - 70 x[0,2,1] - u[0,1] + u[2,1] >= -63
 fluxo_carga_0_3_1: - 70 x[0,3,1] - u[0,1] + u[3,1] >= -57
 fluxo_carga_0_4_1: - 70 x[0,4,1] - u[0,1] + u[4,1] >= -51
 fluxo_carga_0_5_1: - 70 x[0,5,1] - u[0,1] + u[5,1] >= -44
 fluxo_carga_0_6_1: - 70 x[0,6,1] - u[0,1] + u[6,1] >= -67
 fluxo_carga_0_7_1: - 70 x[0,7,1] - u[0,1] + u[7,1] >= -65
 capacidade_max_1_1: u[1,1] <= 70
 fluxo_carga_1_2_1: - 70 x[1,2,1] - u[1,1] + u[2,1] >= -63
 fluxo_carga_1_3_1: - 70 x[1,3,1] - u[1,1] + u[3,1] >= -57
 fluxo_carga_1_4_1: - 70 x[1,4,1] - u[1,1] + u[4,1] >= -51
 fluxo_carga_1_5_1: - 70 x[1,5,1] - u[1,1] + u[5,1] >= -44
 fluxo_carga_1_6_1: - 70 x[1,6,1] - u[1,1] + u[6,1] >= -67
 fluxo_carga_1_7_1: - 70 x[1,7,1] - u[1,1] + u[7,1] >= -65
 capacidade_max_2_1: u[2,1] <= 70
 fluxo_carga_2_1_1: - 70 x[2,1,1] + u[1,1] - u[2,1] >= -60
 fluxo_carga_2_3_1: - 70 x[2,3,1] - u[2,1] + u[3,1] >= -57
 fluxo_carga_2_4_1: - 70 x[2,4,1] - u[2,1] + u[4,1] >= -51
 fluxo_carga_2_5_1: - 70 x[2,5,1] - u[2,1] + u[5,1] >= -44
 fluxo_carga_2_6_1: - 70 x[2,6,1] - u[2,1] + u[6,1] >= -67
 fluxo_carga_2_7_1: - 70 x[2,7,1] - u[2,1] + u[7,1] >= -65
 capacidade_max_3_1: u[3,1] <= 70
 fluxo_carga_3_1_1: - 70 x[3,1,1] + u[1,1] - u[3,1] >= -60
 fluxo_carga_3_2_1: - 70 x[3,2,1] + u[2,1] - u[3,1] >= -63
 fluxo_carga_3_4_1: - 70 x[3,4,1] - u[3,1] + u[4,1] >= -51
 fluxo_carga_3_5_1: - 70 x[3,5,1] - u[3,1] + u[5,1] >= -44
 fluxo_carga_3_6_1: - 70 x[3,6,1] - u[3,1] + u[6,1] >= -67
 fluxo_carga_3_7_1: - 70 x[3,7,1] - u[3,1] + u[7,1] >= -65
 capacidade_max_4_1: u[4,1] <= 70
 fluxo_carga_4_1_1: - 70 x[4,1,1] + u[1,1] - u[4,1] >= -60
 fluxo_carga_4_2_1: - 70 x[4,2,1] + u[2,1] - u[4,1] >= -63
 fluxo_carga_4_3_1: - 70 x[4,3,1] + u[3,1] - u[4,1] >= -57
 fluxo_carga_4_5_1: - 70 x[4,5,1] - u[4,1] + u[5,1] >= -44
 fluxo_carga_4_6_1: - 70 x[4,6,1] - u[4,1] + u[6,1] >= -67
 fluxo_carga_4_7_1: - 70 x[4,7,1] - u[4,1] + u[7,1] >= -65
 capacidade_max_5_1: u[5,1] <= 70
 fluxo_carga_5_1_1: - 70 x[5,1,1] + u[1,1] - u[5,1] >= -60
 fluxo_carga_5_2_1: - 70 x[5,2,1] + u[2,1] - u[5,1] >= -63
 fluxo_carga_5_3_1: - 70 x[5,3,1] + u[3,1] - u[5,1] >= -57
 fluxo_carga_5_4_1: - 70 x[5,4,1] + u[4,1] - u[5,1] >= -51
 fluxo_carga_5_6_1: - 70 x[5,6,1] - u[5,1] + u[6,1] >= -67
 fluxo_carga_5_7_1: - 70 x[5,7,1] - u[5,1] + u[7,1] >= -65
 capacidade_max_6_1: u[6,1] <= 70
 fluxo_carga_6_1_1: - 70 x[6,1,1] + u[1,1] - u[6,1] >= -60
 fluxo_carga_6_2_1: - 70 x[6,2,1] + u[2,1] - u[6,1] >= -63
 fluxo_carga_6_3_1: - 70 x[6,3,1] + u[3,1] - u[6,1] >= -57
 fluxo_carga_6_4_1: - 70 x[6,4,1] + u[4,1] - u[6,1] >= -51
 fluxo_carga_6_5_1: - 70 x[6,5,1] + u[5,1] - u[6,1] >= -44
 fluxo_carga_6_7_1: - 70 x[6,7,1] - u[6,1] + u[7,1] >= -65
 capacidade_max_7_1: u[7,1] <= 70
 fluxo_carga_7_1_1: - 70 x[7,1,1] + u[1,1] - u[7,1] >= -60
 fluxo_carga_7_2_1: - 70 x[7,2,1] + u[2,1] - u[7,1] >= -63
 fluxo_carga_7_3_1: - 70 x[7,3,1] + u[3,1] - u[7,1] >= -57
 fluxo_carga_7_4_1: - 70 x[7,4,1] + u[4,1] - u[7,1] >= -51
 fluxo_carga_7_5_1: - 70 x[7,5,1] + u[5,1] - u[7,1] >= -44
 fluxo_carga_7_6_1: - 70 x[7,6,1] + u[6,1] - u[7,1] >= -67
 capacidade_max_8_1: u[8,1] <= 70
 fluxo_carga_8_1_1: - 70 x[8,1,1] + u[1,1] - u[8,1] >= -60
 fluxo_carga_8_2_1: - 70 x[8,2,1] + u[2,1] - u[8,1] >= -63
 fluxo_carga_8_3_1: - 70 x[8,3,1] + u[3,1] - u[8,1] >= -57
 fluxo_carga_8_4_1: - 70 x[8,4,1] + u[4,1] - u[8,1] >= -51
 fluxo_carga_8_5_1: - 70 x[8,5,1] + u[5,1] - u[8,1] >= -44
 fluxo_carga_8_6_1: - 70 x[8,6,1] + u[6,1] - u[8,1] >= -67
 fluxo_carga_8_7_1: - 70 x[8,7,1] + u[7,1] - u[8,1] >= -65
 inicio_zero_0: s[0,0] = 0
 tw_inicio_0_0: s[0,0] >= 0
 tw_fim_0_0: s[0,0] <= 9999
 tempo_chegada_0_1_0: 100000 x[0,1,0] + s[0,0] - s[1,0]
   <= 99984.76845378827
 tempo_chegada_0_2_0: 100000 x[0,2,0] + s[0,0] - s[2,0] <= 99982
 tempo_chegada_0_3_0: 100000 x[0,3,0] + s[0,0] - s[3,0] <= 99977.639320225
 tempo_chegada_0_4_0: 100000 x[0,4,0] + s[0,0] - s[4,0] <= 99975
 tempo_chegada_0_5_0: 100000 x[0,5,0] + s[0,0] - s[5,0]
   <= 99979.3844718719
 tempo_chegada_0_6_0: 100000 x[0,6,0] + s[0,0] - s[6,0]
   <= 99988.81966011249
 tempo_chegada_0_7_0: 100000 x[0,7,0] + s[0,0] - s[7,0]
   <= 99978.7867965644
 tempo_chegada_0_8_0: 100000 x[0,8,0] + s[0,0] - s[8,0]
   <= 99973.75119050319
 tw_inicio_1_0: s[1,0] >= 0
 tw_fim_1_0: s[1,0] <= 9999
 tempo_chegada_1_0_0: 100000 x[1,0,0] - s[0,0] + s[1,0]
   <= 99984.76845378827
 tempo_chegada_1_2_0: 100000 x[1,2,0] + s[1,0] - s[2,0]
   <= 99967.44235880781
 tempo_chegada_1_3_0: 100000 x[1,3,0] + s[1,0] - s[3,0]
   <= 99985.43978022144
 tempo_chegada_1_4_0: 100000 x[1,4,0] + s[1,0] - s[4,0]
   <= 99967.7975156238
 tempo_chegada_1_5_0: 100000 x[1,5,0] + s[1,0] - s[5,0]
   <= 99967.7975156238
 tempo_chegada_1_6_0: 100000 x[1,6,0] + s[1,0] - s[6,0]
   <= 99975.16051530326
 tempo_chegada_1_7_0: 100000 x[1,7,0] + s[1,0] - s[7,0]
   <= 99978.97620395837
 tempo_chegada_1_8_0: 100000 x[1,8,0] + s[1,0] - s[8,0]
   <= 99968.42469319231
 tw_inicio_2_0: s[2,0] >= 0
 tw_fim_2_0: s[2,0] <= 9999
 tempo_chegada_2_0_0: 100000 x[2,0,0] - s[0,0] + s[2,0] <= 99982
 tempo_chegada_2_1_0: 100000 x[2,1,0] - s[1,0] + s[2,0]
   <= 99967.44235880781
 tempo_chegada_2_3_0: 100000 x[2,3,0] + s[2,0] - s[3,0]
   <= 99965.59069893183
 tempo_chegada_2_4_0: 100000 x[2,4,0] + s[2,0] - s[4,0]
   <= 99979.77625158384
 tempo_chegada_2_5_0: 100000 x[2,5,0] + s[2,0] - s[5,0]
   <= 99976.14627911625
 tempo_chegada_2_6_0: 100000 x[2,6,0] + s[2,0] - s[6,0]
   <= 99983.59878053314
 tempo_chegada_2_7_0: 100000 x[2,7,0] + s[2,0] - s[7,0]
   <= 99963.75086207922
 tempo_chegada_2_8_0: 100000 x[2,8,0] + s[2,0] - s[8,0]
   <= 99963.93062240626
 tw_inicio_3_0: s[3,0] >= 0
 tw_fim_3_0: s[3,0] <= 9999
 tempo_chegada_3_0_0: 100000 x[3,0,0] - s[0,0] + s[3,0] <= 99977.639320225
 tempo_chegada_3_1_0: 100000 x[3,1,0] - s[1,0] + s[3,0]
   <= 99985.43978022144
 tempo_chegada_3_2_0: 100000 x[3,2,0] - s[2,0] + s[3,0]
   <= 99965.59069893183
 tempo_chegada_3_4_0: 100000 x[3,4,0] + s[3,0] - s[4,0] <= 99975
 tempo_chegada_3_5_0: 100000 x[3,5,0] + s[3,0] - s[5,0]
   <= 99957.27998127342
 tempo_chegada_3_6_0: 100000 x[3,6,0] + s[3,0] - s[6,0]
   <= 99966.4589803375
 tempo_chegada_3_7_0: 100000 x[3,7,0] + s[3,0] - s[7,0]
   <= 99964.64466094067
 tempo_chegada_3_8_0: 100000 x[3,8,0] + s[3,0] - s[8,0]
   <= 99954.95557748179
 tw_inicio_4_0: s[4,0] >= 0
 tw_fim_4_0: s[4,0] <= 9999
 tempo_chegada_4_0_0: 100000 x[4,0,0] - s[0,0] + s[4,0] <= 99975
 tempo_chegada_4_1_0: 100000 x[4,1,0] - s[1,0] + s[4,0]
   <= 99967.7975156238
 tempo_chegada_4_2_0: 100000 x[4,2,0] - s[2,0] + s[4,0]
   <= 99979.77625158384
 tempo_chegada_4_3_0: 100000 x[4,3,0] - s[3,0] + s[4,0] <= 99975
 tempo_chegada_4_5_0: 100000 x[4,5,0] + s[4,0] - s[5,0]
   <= 99958.76894374382
 tempo_chegada_4_6_0: 100000 x[4,6,0] + s[4,0] - s[6,0]
   <= 99968.37722339832
 tempo_chegada_4_7_0: 100000 x[4,7,0] + s[4,0] - s[7,0]
   <= 99953.90227771354
 tempo_chegada_4_8_0: 100000 x[4,8,0] + s[4,0] - s[8,0]
   <= 99949.46288492603
 tw_inicio_5_0: s[5,0] >= 0
 tw_fim_5_0: s[5,0] <= 9999
 tempo_chegada_5_0_0: 100000 x[5,0,0] - s[0,0] + s[5,0]
   <= 99979.3844718719
 tempo_chegada_5_1_0: 100000 x[5,1,0] - s[1,0] + s[5,0]
   <= 99967.7975156238
 tempo_chegada_5_2_0: 100000 x[5,2,0] - s[2,0] + s[5,0]
   <= 99976.14627911625
 tempo_chegada_5_3_0: 100000 x[5,3,0] - s[3,0] + s[5,0]
   <= 99957.27998127342
 tempo_chegada_5_4_0: 100000 x[5,4,0] - s[4,0] + s[5,0]
   <= 99958.76894374382
 tempo_chegada_5_6_0: 100000 x[5,6,0] + s[5,0] - s[6,0] <= 99990
 tempo_chegada_5_7_0: 100000 x[5,7,0] + s[5,0] - s[7,0]
   <= 99979.3844718719
 tempo_chegada_5_8_0: 100000 x[5,8,0] + s[5,0] - s[8,0]
   <= 99986.07161172281
 tw_inicio_6_0: s[6,0] >= 0
 tw_fim_6_0: s[6,0] <= 9999
 tempo_chegada_6_0_0: 100000 x[6,0,0] - s[0,0] + s[6,0]
   <= 99988.81966011249
 tempo_chegada_6_1_0: 100000 x[6,1,0] - s[1,0] + s[6,0]
   <= 99975.16051530326
 tempo_chegada_6_2_0: 100000 x[6,2,0] - s[2,0] + s[6,0]
   <= 99983.59878053314
 tempo_chegada_6_3_0: 100000 x[6,3,0] - s[3,0] + s[6,0]
   <= 99966.4589803375
 tempo_chegada_6_4_0: 100000 x[6,4,0] - s[4,0] + s[6,0]
   <= 99968.37722339832
 tempo_chegada_6_5_0: 100000 x[6,5,0] - s[5,0] + s[6,0] <= 99990
 tempo_chegada_6_7_0: 100000 x[6,7,0] + s[6,0] - s[7,0]
   <= 99979.3844718719
 tempo_chegada_6_8_0: 100000 x[6,8,0] + s[6,0] - s[8,0]
   <= 99980.15056675872
 tw_inicio_7_0: s[7,0] >= 0
 tw_fim_7_0: s[7,0] <= 9999
 tempo_chegada_7_0_0: 100000 x[7,0,0] - s[0,0] + s[7,0]
   <= 99978.7867965644
 tempo_chegada_7_1_0: 100000 x[7,1,0] - s[1,0] + s[7,0]
   <= 99978.97620395837
 tempo_chegada_7_2_0: 100000 x[7,2,0] - s[2,0] + s[7,0]
   <= 99963.75086207922
 tempo_chegada_7_3_0: 100000 x[7,3,0] - s[3,0] + s[7,0]
   <= 99964.64466094067
 tempo_chegada_7_4_0: 100000 x[7,4,0] - s[4,0] + s[7,0]
   <= 99953.90227771354
 tempo_chegada_7_5_0: 100000 x[7,5,0] - s[5,0] + s[7,0]
   <= 99979.3844718719
 tempo_chegada_7_6_0: 100000 x[7,6,0] - s[6,0] + s[7,0]
   <= 99979.3844718719
 tempo_chegada_7_8_0: 100000 x[7,8,0] + s[7,0] - s[8,0]
   <= 99987.79344438427
 tw_inicio_8_0: s[8,0] >= 0
 tw_fim_8_0: s[8,0] <= 9999
 tempo_chegada_8_0_0: 100000 x[8,0,0] - s[0,0] + s[8,0]
   <= 99973.75119050319
 tempo_chegada_8_1_0: 100000 x[8,1,0] - s[1,0] + s[8,0]
   <= 99968.42469319231
 tempo_chegada_8_2_0: 100000 x[8,2,0] - s[2,0] + s[8,0]
   <= 99963.93062240626
 tempo_chegada_8_3_0: 100000 x[8,3,0] - s[3,0] + s[8,0]
   <= 99954.95557748179
 tempo_chegada_8_4_0: 100000 x[8,4,0] - s[4,0] + s[8,0]
   <= 99949.46288492603
 tempo_chegada_8_5_0: 100000 x[8,5,0] - s[5,0] + s[8,0]
   <= 99986.07161172281
 tempo_chegada_8_6_0: 100000 x[8,6,0] - s[6,0] + s[8,0]
   <= 99980.15056675872
 tempo_chegada_8_7_0: 100000 x[8,7,0] - s[7,0] + s[8,0]
   <= 99987.79344438427
 inicio_zero_1: s[0,1] = 0
 tw_inicio_0_1: s[0,1] >= 0
 tw_fim_0_1: s[0,1] <= 9999
 tempo_chegada_0_1_1: 100000 x[0,1,1] + s[0,1] - s[1,1]
   <= 99984.76845378827
 tempo_chegada_0_2_1: 100000 x[0,2,1] + s[0,1] - s[2,1] <= 99982
 tempo_chegada_0_3_1: 100000 x[0,3,1] + s[0,1] - s[3,1] <= 99977.639320225
 tempo_chegada_0_4_1: 100000 x[0,4,1] + s[0,1] - s[4,1] <= 99975
 tempo_chegada_0_5_1: 100000 x[0,5,1] + s[0,1] - s[5,1]
   <= 99979.3844718719
 tempo_chegada_0_6_1: 100000 x[0,6,1] + s[0,1] - s[6,1]
   <= 99988.81966011249
 tempo_chegada_0_7_1: 100000 x[0,7,1] + s[0,1] - s[7,1]
   <= 99978.7867965644
 tempo_chegada_0_8_1: 100000 x[0,8,1] + s[0,1] - s[8,1]
   <= 99973.75119050319
 tw_inicio_1_1: s[1,1] >= 0
 tw_fim_1_1: s[1,1] <= 9999
 tempo_chegada_1_0_1: 100000 x[1,0,1] - s[0,1] + s[1,1]
   <= 99984.76845378827
 tempo_chegada_1_2_1: 100000 x[1,2,1] + s[1,1] - s[2,1]
   <= 99967.44235880781
 tempo_chegada_1_3_1: 100000 x[1,3,1] + s[1,1] - s[3,1]
   <= 99985.43978022144
 tempo_chegada_1_4_1: 100000 x[1,4,1] + s[1,1] - s[4,1]
   <= 99967.7975156238
 tempo_chegada_1_5_1: 100000 x[1,5,1] + s[1,1] - s[5,1]
   <= 99967.7975156238
 tempo_chegada_1_6_1: 100000 x[1,6,1] + s[1,1] - s[6,1]
   <= 99975.16051530326
 tempo_chegada_1_7_1: 100000 x[1,7,1] + s[1,1] - s[7,1]
   <= 99978.97620395837
 tempo_chegada_1_8_1: 100000 x[1,8,1] + s[1,1] - s[8,1]
   <= 99968.42469319231
 tw_inicio_2_1: s[2,1] >= 0
 tw_fim_2_1: s[2,1] <= 9999
 tempo_chegada_2_0_1: 100000 x[2,0,1] - s[0,1] + s[2,1] <= 99982
 tempo_chegada_2_1_1: 100000 x[2,1,1] - s[1,1] + s[2,1]
   <= 99967.44235880781
 tempo_chegada_2_3_1: 100000 x[2,3,1] + s[2,1] - s[3,1]
   <= 99965.59069893183
 tempo_chegada_2_4_1: 100000 x[2,4,1] + s[2,1] - s[4,1]
   <= 99979.77625158384
 tempo_chegada_2_5_1: 100000 x[2,5,1] + s[2,1] - s[5,1]
   <= 99976.14627911625
 tempo_chegada_2_6_1: 100000 x[2,6,1] + s[2,1] - s[6,1]
   <= 99983.59878053314
 tempo_chegada_2_7_1: 100000 x[2,7,1] + s[2,1] - s[7,1]
   <= 99963.75086207922
 tempo_chegada_2_8_1: 100000 x[2,8,1] + s[2,1] - s[8,1]
   <= 99963.93062240626
 tw_inicio_3_1: s[3,1] >= 0
 tw_fim_3_1: s[3,1] <= 9999
 tempo_chegada_3_0_1: 100000 x[3,0,1] - s[0,1] + s[3,1] <= 99977.639320225
 tempo_chegada_3_1_1: 100000 x[3,1,1] - s[1,1] + s[3,1]
   <= 99985.43978022144
 tempo_chegada_3_2_1: 100000 x[3,2,1] - s[2,1] + s[3,1]
   <= 99965.59069893183
 tempo_chegada_3_4_1: 100000 x[3,4,1] + s[3,1] - s[4,1] <= 99975
 tempo_chegada_3_5_1: 100000 x[3,5,1] + s[3,1] - s[5,1]
   <= 99957.27998127342
 tempo_chegada_3_6_1: 100000 x[3,6,1] + s[3,1] - s[6,1]
   <= 99966.4589803375
 tempo_chegada_3_7_1: 100000 x[3,7,1] + s[3,1] - s[7,1]
   <= 99964.64466094067
 tempo_chegada_3_8_1: 100000 x[3,8,1] + s[3,1] - s[8,1]
   <= 99954.95557748179
 tw_inicio_4_1: s[4,1] >= 0
 tw_fim_4_1: s[4,1] <= 9999
 tempo_chegada_4_0_1: 100000 x[4,0,1] - s[0,1] + s[4,1] <= 99975
 tempo_chegada_4_1_1: 100000 x[4,1,1] - s[1,1] + s[4,1]
   <= 99967.7975156238
 tempo_chegada_4_2_1: 100000 x[4,2,1] - s[2,1] + s[4,1]
   <= 99979.77625158384
 tempo_chegada_4_3_1: 100000 x[4,3,1] - s[3,1] + s[4,1] <= 99975
 tempo_chegada_4_5_1: 100000 x[4,5,1] + s[4,1] - s[5,1]
   <= 99958.76894374382
 tempo_chegada_4_6_1: 100000 x[4,6,1] + s[4,1] - s[6,1]
   <= 99968.37722339832
 tempo_chegada_4_7_1: 100000 x[4,7,1] + s[4,1] - s[7,1]
   <= 99953.90227771354
 tempo_chegada_4_8_1: 100000 x[4,8,1] + s[4,1] - s[8,1]
   <= 99949.46288492603
 tw_inicio_5_1: s[5,1] >= 0
 tw_fim_5_1: s[5,1] <= 9999
 tempo_chegada_5_0_1: 100000 x[5,0,1] - s[0,1] + s[5,1]
   <= 99979.3844718719
 tempo_chegada_5_1_1: 100000 x[5,1,1] - s[1,1] + s[5,1]
   <= 99967.7975156238
 tempo_chegada_5_2_1: 100000 x[5,2,1] - s[2,1] + s[5,1]
   <= 99976.14627911625
 tempo_chegada_5_3_1: 100000 x[5,3,1] - s[3,1] + s[5,1]
   <= 99957.27998127342
 tempo_chegada_5_4_1: 100000 x[5,4,1] - s[4,1] + s[5,1]
   <= 99958.76894374382
 tempo_chegada_5_6_1: 100000 x[5,6,1] + s[5,1] - s[6,1] <= 99990
 tempo_chegada_5_7_1: 100000 x[5,7,1] + s[5,1] - s[7,1]
   <= 99979.3844718719
 tempo_chegada_5_8_1: 100000 x[5,8,1] + s[5,1] - s[8,1]
   <= 99986.07161172281
 tw_inicio_6_1: s[6,1] >= 0
 tw_fim_6_1: s[6,1] <= 9999
 tempo_chegada_6_0_1: 100000 x[6,0,1] - s[0,1] + s[6,1]
   <= 99988.81966011249
 tempo_chegada_6_1_1: 100000 x[6,1,1] - s[1,1] + s[6,1]
   <= 99975.16051530326
 tempo_chegada_6_2_1: 100000 x[6,2,1] - s[2,1] + s[6,1]
   <= 99983.59878053314
 tempo_chegada_6_3_1: 100000 x[6,3,1] - s[3,1] + s[6,1]
   <= 99966.4589803375
 tempo_chegada_6_4_1: 100000 x[6,4,1] - s[4,1] + s[6,1]
   <= 99968.37722339832
 tempo_chegada_6_5_1: 100000 x[6,5,1] - s[5,1] + s[6,1] <= 99990
 tempo_chegada_6_7_1: 100000 x[6,7,1] + s[6,1] - s[7,1]
   <= 99979.3844718719
 tempo_chegada_6_8_1: 100000 x[6,8,1] + s[6,1] - s[8,1]
   <= 99980.15056675872
 tw_inicio_7_1: s[7,1] >= 0
 tw_fim_7_1: s[7,1] <= 9999
 tempo_chegada_7_0_1: 100000 x[7,0,1] - s[0,1] + s[7,1]
   <= 99978.7867965644
 tempo_chegada_7_1_1: 100000 x[7,1,1] - s[1,1] + s[7,1]
   <= 99978.97620395837
 tempo_chegada_7_2_1: 100000 x[7,2,1] - s[2,1] + s[7,1]
   <= 99963.75086207922
 tempo_chegada_7_3_1: 100000 x[7,3,1] - s[3,1] + s[7,1]
   <= 99964.64466094067
 tempo_chegada_7_4_1: 100000 x[7,4,1] - s[4,1] + s[7,1]
   <= 99953.90227771354
 tempo_chegada_7_5_1: 100000 x[7,5,1] - s[5,1] + s[7,1]
   <= 99979.3844718719
 tempo_chegada_7_6_1: 100000 x[7,6,1] - s[6,1] + s[7,1]
   <= 99979.3844718719
 tempo_chegada_7_8_1: 100000 x[7,8,1] + s[7,1] - s[8,1]
   <= 99987.79344438427
 tw_inicio_8_1: s[8,1] >= 0
 tw_fim_8_1: s[8,1] <= 9999
 tempo_chegada_8_0_1: 100000 x[8,0,1] - s[0,1] + s[8,1]
   <= 99973.75119050319
 tempo_chegada_8_1_1: 100000 x[8,1,1] - s[1,1] + s[8,1]
   <= 99968.42469319231
 tempo_chegada_8_2_1: 100000 x[8,2,1] - s[2,1] + s[8,1]
   <= 99963.93062240626
 tempo_chegada_8_3_1: 100000 x[8,3,1] - s[3,1] + s[8,1]
   <= 99954.95557748179
 tempo_chegada_8_4_1: 100000 x[8,4,1] - s[4,1] + s[8,1]
   <= 99949.46288492603
 tempo_chegada_8_5_1: 100000 x[8,5,1] - s[5,1] + s[8,1]
   <= 99986.07161172281
 tempo_chegada_8_6_1: 100000 x[8,6,1] - s[6,1] + s[8,1]
   <= 99980.15056675872
 tempo_chegada_8_7_1: 100000 x[8,7,1] - s[7,1] + s[8,1]
   <= 99987.79344438427
Bounds
Binaries
 x[0,0,0] x[0,0,1] x[0,1,0] x[0,1,1] x[0,2,0] x[0,2,1] x[0,3,0] x[0,3,1]
 x[0,4,0] x[0,4,1] x[0,5,0] x[0,5,1] x[0,6,0] x[0,6,1] x[0,7,0] x[0,7,1]
 x[0,8,0] x[0,8,1] x[1,0,0] x[1,0,1] x[1,1,0] x[1,1,1] x[1,2,0] x[1,2,1]
 x[1,3,0] x[1,3,1] x[1,4,0] x[1,4,1] x[1,5,0] x[1,5,1] x[1,6,0] x[1,6,1]
 x[1,7,0] x[1,7,1] x[1,8,0] x[1,8,1] x[2,0,0] x[2,0,1] x[2,1,0] x[2,1,1]
 x[2,2,0] x[2,2,1] x[2,3,0] x[2,3,1] x[2,4,0] x[2,4,1] x[2,5,0] x[2,5,1]
 x[2,6,0] x[2,6,1] x[2,7,0] x[2,7,1] x[2,8,0] x[2,8,1] x[3,0,0] x[3,0,1]
 x[3,1,0] x[3,1,1] x[3,2,0] x[3,2,1] x[3,3,0] x[3,3,1] x[3,4,0] x[3,4,1]
 x[3,5,0] x[3,5,1] x[3,6,0] x[3,6,1] x[3,7,0] x[3,7,1] x[3,8,0] x[3,8,1]
 x[4,0,0] x[4,0,1] x[4,1,0] x[4,1,1] x[4,2,0] x[4,2,1] x[4,3,0] x[4,3,1]
 x[4,4,0] x[4,4,1] x[4,5,0] x[4,5,1] x[4,6,0] x[4,6,1] x[4,7,0] x[4,7,1]
 x[4,8,0] x[4,8,1] x[5,0,0] x[5,0,1] x[5,1,0] x[5,1,1] x[5,2,0] x[5,2,1]
 x[5,3,0] x[5,3,1] x[5,4,0] x[5,4,1] x[5,5,0] x[5,5,1] x[5,6,0] x[5,6,1]
 x[5,7,0] x[5,7,1] x[5,8,0] x[5,8,1] x[6,0,0] x[6,0,1] x[6,1,0] x[6,1,1]
 x[6,2,0] x[6,2,1] x[6,3,0] x[6,3,1] x[6,4,0] x[6,4,1] x[6,5,0] x[6,5,1]
 x[6,6,0] x[6,6,1] x[6,7,0] x[6,7,1] x[6,8,0] x[6,8,1] x[7,0,0] x[7,0,1]
 x[7,1,0] x[7,1,1] x[7,2,0] x[7,2,1] x[7,3,0] x[7,3,1] x[7,4,0] x[7,4,1]
 x[7,5,0] x[7,5,1] x[7,6,0] x[7,6,1] x[7,7,0] x[7,7,1] x[7,8,0] x[7,8,1]
 x[8,0,0] x[8,0,1] x[8,1,0] x[8,1,1] x[8,2,0] x[8,2,1] x[8,3,0] x[8,3,1]
 x[8,4,0] x[8,4,1] x[8,5,0] x[8,5,1] x[8,6,0] x[8,6,1] x[8,7,0] x[8,7,1]
 x[8,8,0] x[8,8,1]
End
